p cnf 65 247
-3 -1 0
-3 -2 0
1 2 3 0
-5 -4 0
-5 -1 0
4 1 5 0
6 2 0
6 -1 0
-2 1 -6 0
5 6 -7 0
-5 -6 -7 0
5 -6 7 0
-5 6 7 0
8 3 0
8 7 0
-3 -7 -8 0
-11 -10 0
-11 9 0
10 -9 11 0
12 -9 0
12 11 0
9 -11 -12 0
13 -8 0
13 12 0
8 -12 -13 0
-15 14 0
-15 -10 0
-14 10 15 0
16 -10 -17 0
-16 10 -17 0
16 10 17 0
-16 -10 17 0
18 -17 0
18 -7 0
17 7 -18 0
16 -1 -19 0
-16 1 -19 0
16 1 19 0
-16 -1 19 0
20 -19 0
20 -6 0
19 6 -20 0
-20 -21 -22 0
20 21 -22 0
-20 21 22 0
20 -21 22 0
-23 18 0
-23 -22 0
-18 22 23 0
24 -19 0
24 5 0
19 -5 -24 0
-25 10 0
-25 11 0
-10 -11 25 0
-26 24 0
-26 -25 0
-24 25 26 0
-27 19 0
-27 24 0
-19 -24 27 0
1 27 -28 0
-1 -27 -28 0
1 -27 28 0
-1 27 28 0
-29 4 0
-29 -14 0
-4 14 29 0
11 -29 -30 0
-11 29 -30 0
11 29 30 0
-11 -29 30 0
-31 28 0
-31 -30 0
-28 30 31 0
32 1 0
32 -6 0
-1 6 -32 0
32 16 -33 0
-32 -16 -33 0
32 -16 33 0
-32 16 33 0
-34 -11 0
-34 -1 0
11 1 34 0
33 -34 -35 0
-33 34 -35 0
33 34 35 0
-33 -34 35 0
4 -6 -36 0
-4 6 -36 0
4 6 36 0
-4 -6 36 0
-10 -3 -37 0
10 3 -37 0
-10 3 37 0
10 -3 37 0
-36 37 -38 0
36 -37 -38 0
-36 -37 38 0
36 37 38 0
1 -27 -39 0
-1 27 -39 0
1 27 39 0
-1 -27 39 0
-40 -38 0
-40 -39 0
38 39 40 0
10 28 -42 0
-10 -28 -42 0
10 -28 42 0
-10 28 42 0
42 4 -43 0
-42 -4 -43 0
42 -4 43 0
-42 4 43 0
-41 -43 -44 0
41 43 -44 0
-41 43 44 0
41 -43 44 0
-45 40 0
-45 44 0
-40 -44 45 0
35 45 -46 0
-35 -45 -46 0
35 -45 46 0
-35 45 46 0
47 -7 -48 0
-47 7 -48 0
47 7 48 0
-47 -7 48 0
49 -4 0
49 -5 0
4 5 -49 0
48 -49 -50 0
-48 49 -50 0
48 49 50 0
-48 -49 50 0
-51 -29 0
-51 43 0
29 -43 51 0
-52 -27 0
-52 -20 0
27 20 52 0
-9 -52 -53 0
9 52 -53 0
-9 52 53 0
9 -52 53 0
54 -51 0
54 53 0
51 -53 -54 0
50 -54 -55 0
-50 54 -55 0
50 54 55 0
-50 -54 55 0
56 -24 0
56 -11 0
24 11 -56 0
57 28 0
57 21 0
-28 -21 -57 0
56 57 -58 0
-56 -57 -58 0
56 -57 58 0
-56 57 58 0
59 -55 0
59 -58 0
55 58 -59 0
60 -46 0
60 -59 0
46 59 -60 0
31 -60 -61 0
-31 60 -61 0
31 60 61 0
-31 -60 61 0
-62 26 0
-62 -61 0
-26 61 62 0
63 -23 0
63 -62 0
23 62 -63 0
15 63 -64 0
-15 -63 -64 0
15 -63 64 0
-15 63 64 0
13 64 -65 0
-13 -64 -65 0
13 -64 65 0
-13 64 65 0
17 -29 28 0
15 13 50 -65 -6 -4 0
40 -4 -64 42 56 -8 0
-38 55 -54 0
-63 54 65 -27 0
-39 56 38 47 0
34 -41 -61 -20 0
-35 23 0
-51 -12 -63 0
-9 22 28 0
-20 -11 47 -4 53 0
1 -50 65 42 -56 0
43 -32 -42 0
-7 21 -58 0
-2 -35 37 0
27 -65 12 29 -3 -15 0
12 -31 0
-45 64 9 12 -18 0
-49 64 -16 13 -2 21 0
37 -28 0
-29 -55 -19 28 -45 0
-3 20 -57 0
-2 35 -40 0
18 -29 0
-16 -50 -41 -35 9 0
22 28 53 0
32 -5 16 -50 -63 53 0
-8 4 39 0
8 -38 49 61 0
6 -47 0
-11 -42 25 0
40 -33 16 61 0
9 -45 13 0
50 -36 0
-8 35 34 -37 16 0
5 56 0
36 51 44 0
-8 64 62 7 0
-55 -49 -13 0
-2 -40 0
49 -21 -12 28 -18 0
-54 58 -51 -12 53 0
-37 16 -44 36 -21 62 0
-58 -23 -26 -24 -8 0
13 54 -42 -40 -36 0
-59 -56 0
-39 -5 0
42 46 -6 -29 53 0
-13 5 35 28 56 -26 0
38 50 -19 -45 65 0
8 -41 47 0
29 37 10 0
58 4 -40 0
65 -44 0
-60 -43 -24 4 0
3 -26 53 27 0
27 51 0
65 0
